NAME: PRZ_M632a
PRECURSORMZ: 632.02808644783
PRECURSORTYPE: [M-H]-
FORMULA: C21H26Cl3N3O11S
Ontology: NA
INCHIKEY: UNCSXZRCRHPBJA-UHFFFAOYNA-N
SMILES: CCCN(CCOC=1C(=CC(=C(C1Cl)OC2C(C(C(C(COS(O)(=O)=O)O2)O)O)O)Cl)Cl)C(N3C=CN=C3)=O
RETENTIONTIME: 
CCS: -1
IONMODE: Negative
INSTRUMENTTYPE: LC-ESI-QFT
INSTRUMENT: Q Exactive Orbitrap Thermo Scientific
COLLISIONENERGY: 20 (nominal)
Comment: DB#=ET201351; origin=MassBank-EU
Num Peaks: 2
96.9602	70
241.0031	1000

NAME: PRZ_M632a
PRECURSORMZ: 632.02808644783
PRECURSORTYPE: [M-H]-
FORMULA: C21H26Cl3N3O11S
Ontology: NA
INCHIKEY: UNCSXZRCRHPBJA-UHFFFAOYNA-N
SMILES: CCCN(CCOC=1C(=CC(=C(C1Cl)OC2C(C(C(C(COS(O)(=O)=O)O2)O)O)O)Cl)Cl)C(N3C=CN=C3)=O
RETENTIONTIME: 
CCS: -1
IONMODE: Negative
INSTRUMENTTYPE: LC-ESI-QFT
INSTRUMENT: Q Exactive Orbitrap Thermo Scientific
COLLISIONENERGY: 40 (nominal)
Comment: DB#=ET201352; origin=MassBank-EU
Num Peaks: 3
67.0295	10
96.9602	1000
241.0032	920

NAME: PRZ_M632a
PRECURSORMZ: 632.02808644783
PRECURSORTYPE: [M-H]-
FORMULA: C21H26Cl3N3O11S
Ontology: NA
INCHIKEY: UNCSXZRCRHPBJA-UHFFFAOYNA-N
SMILES: CCCN(CCOC=1C(=CC(=C(C1Cl)OC2C(C(C(C(COS(O)(=O)=O)O2)O)O)O)Cl)Cl)C(N3C=CN=C3)=O
RETENTIONTIME: 
CCS: -1
IONMODE: Negative
INSTRUMENTTYPE: LC-ESI-QFT
INSTRUMENT: Q Exactive Orbitrap Thermo Scientific
COLLISIONENERGY: 60 (nominal)
Comment: DB#=ET201353; origin=MassBank-EU
Num Peaks: 7
67.0296	10
71.0133	10
79.9571	50
80.9648	10
87.0086	10
96.9602	1000
241.0033	80

NAME: PRZ_M632a
PRECURSORMZ: 632.02808644783
PRECURSORTYPE: [M-H]-
FORMULA: C21H26Cl3N3O11S
Ontology: NA
INCHIKEY: UNCSXZRCRHPBJA-UHFFFAOYNA-N
SMILES: CCCN(CCOC=1C(=CC(=C(C1Cl)OC2C(C(C(C(COS(O)(=O)=O)O2)O)O)O)Cl)Cl)C(N3C=CN=C3)=O
RETENTIONTIME: 
CCS: -1
IONMODE: Negative
INSTRUMENTTYPE: LC-ESI-QFT
INSTRUMENT: Q Exactive Orbitrap Thermo Scientific
COLLISIONENERGY: 80 (nominal)
Comment: DB#=ET201354; origin=MassBank-EU
Num Peaks: 6
67.0296	10
71.0133	10
79.9571	110
80.9649	30
87.0086	30
96.9602	1000

NAME: PRZ_M632a
PRECURSORMZ: 632.02808644783
PRECURSORTYPE: [M-H]-
FORMULA: C21H26Cl3N3O11S
Ontology: NA
INCHIKEY: UNCSXZRCRHPBJA-UHFFFAOYNA-N
SMILES: CCCN(CCOC=1C(=CC(=C(C1Cl)OC2C(C(C(C(COS(O)(=O)=O)O2)O)O)O)Cl)Cl)C(N3C=CN=C3)=O
RETENTIONTIME: 
CCS: -1
IONMODE: Negative
INSTRUMENTTYPE: LC-ESI-QFT
INSTRUMENT: Q Exactive Orbitrap Thermo Scientific
COLLISIONENERGY: 90 (nominal)
Comment: DB#=ET201355; origin=MassBank-EU
Num Peaks: 5
71.0134	20
79.9571	150
80.9649	30
87.0085	40
96.9602	1000

NAME: PRZ_M469
PRECURSORMZ: 469.97526304783
PRECURSORTYPE: [M-H]-
FORMULA: C15H16Cl3N3O6S
Ontology: NA
INCHIKEY: AGQNYUSTLRWZPV-UHFFFAOYSA-N
SMILES: CCCN(CCOC=1C(=CC(=C(C1Cl)OS(O)(=O)=O)Cl)Cl)C(N2C=CN=C2)=O
RETENTIONTIME: 
CCS: -1
IONMODE: Negative
INSTRUMENTTYPE: LC-ESI-QFT
INSTRUMENT: Q Exactive Orbitrap Thermo Scientific
COLLISIONENERGY: 20 (nominal)
Comment: DB#=ET201451; origin=MassBank-EU
Num Peaks: 2
209.9045	100
390.01871	1000

NAME: PRZ_M469
PRECURSORMZ: 469.97526304783
PRECURSORTYPE: [M-H]-
FORMULA: C15H16Cl3N3O6S
Ontology: NA
INCHIKEY: AGQNYUSTLRWZPV-UHFFFAOYSA-N
SMILES: CCCN(CCOC=1C(=CC(=C(C1Cl)OS(O)(=O)=O)Cl)Cl)C(N2C=CN=C2)=O
RETENTIONTIME: 
CCS: -1
IONMODE: Negative
INSTRUMENTTYPE: LC-ESI-QFT
INSTRUMENT: Q Exactive Orbitrap Thermo Scientific
COLLISIONENERGY: 30 (nominal)
Comment: DB#=ET201452; origin=MassBank-EU
Num Peaks: 4
67.0295	240
96.9598	40
209.90491	1000
390.01889	930

NAME: PRZ_M469
PRECURSORMZ: 469.97526304783
PRECURSORTYPE: [M-H]-
FORMULA: C15H16Cl3N3O6S
Ontology: NA
INCHIKEY: AGQNYUSTLRWZPV-UHFFFAOYSA-N
SMILES: CCCN(CCOC=1C(=CC(=C(C1Cl)OS(O)(=O)=O)Cl)Cl)C(N2C=CN=C2)=O
RETENTIONTIME: 
CCS: -1
IONMODE: Negative
INSTRUMENTTYPE: LC-ESI-QFT
INSTRUMENT: Q Exactive Orbitrap Thermo Scientific
COLLISIONENERGY: 40 (nominal)
Comment: DB#=ET201453; origin=MassBank-EU
Num Peaks: 4
96.96	20
124.0073	20
209.90491	1000
390.01959	30

NAME: PRZ_M469
PRECURSORMZ: 469.97526304783
PRECURSORTYPE: [M-H]-
FORMULA: C15H16Cl3N3O6S
Ontology: NA
INCHIKEY: AGQNYUSTLRWZPV-UHFFFAOYSA-N
SMILES: CCCN(CCOC=1C(=CC(=C(C1Cl)OS(O)(=O)=O)Cl)Cl)C(N2C=CN=C2)=O
RETENTIONTIME: 
CCS: -1
IONMODE: Negative
INSTRUMENTTYPE: LC-ESI-QFT
INSTRUMENT: Q Exactive Orbitrap Thermo Scientific
COLLISIONENERGY: 60 (nominal)
Comment: DB#=ET201454; origin=MassBank-EU
Num Peaks: 3
96.9599	50
124.0076	30
209.90491	1000

NAME: PRZ_M632b
PRECURSORMZ: 632.02808644783
PRECURSORTYPE: [M-H]-
FORMULA: C21H26Cl3N3O11S
Ontology: NA
INCHIKEY: UNCSXZRCRHPBJA-UHFFFAOYNA-N
SMILES: CCCN(CCOC=1C(=CC(=C(C1Cl)OC2C(C(C(C(COS(O)(=O)=O)O2)O)O)O)Cl)Cl)C(N3C=CN=C3)=O
RETENTIONTIME: 
CCS: -1
IONMODE: Negative
INSTRUMENTTYPE: LC-ESI-QFT
INSTRUMENT: Q Exactive Orbitrap Thermo Scientific
COLLISIONENERGY: 20 (nominal)
Comment: DB#=ET201651; origin=MassBank-EU
Num Peaks: 2
96.9602	40
241.0031	1000

NAME: PRZ_M632b
PRECURSORMZ: 632.02808644783
PRECURSORTYPE: [M-H]-
FORMULA: C21H26Cl3N3O11S
Ontology: NA
INCHIKEY: UNCSXZRCRHPBJA-UHFFFAOYNA-N
SMILES: CCCN(CCOC=1C(=CC(=C(C1Cl)OC2C(C(C(C(COS(O)(=O)=O)O2)O)O)O)Cl)Cl)C(N3C=CN=C3)=O
RETENTIONTIME: 
CCS: -1
IONMODE: Negative
INSTRUMENTTYPE: LC-ESI-QFT
INSTRUMENT: Q Exactive Orbitrap Thermo Scientific
COLLISIONENERGY: 40 (nominal)
Comment: DB#=ET201652; origin=MassBank-EU
Num Peaks: 3
79.9571	20
96.9602	740
241.0031	1000

NAME: PRZ_M632b
PRECURSORMZ: 632.02808644783
PRECURSORTYPE: [M-H]-
FORMULA: C21H26Cl3N3O11S
Ontology: NA
INCHIKEY: UNCSXZRCRHPBJA-UHFFFAOYNA-N
SMILES: CCCN(CCOC=1C(=CC(=C(C1Cl)OC2C(C(C(C(COS(O)(=O)=O)O2)O)O)O)Cl)Cl)C(N3C=CN=C3)=O
RETENTIONTIME: 
CCS: -1
IONMODE: Negative
INSTRUMENTTYPE: LC-ESI-QFT
INSTRUMENT: Q Exactive Orbitrap Thermo Scientific
COLLISIONENERGY: 60 (nominal)
Comment: DB#=ET201653; origin=MassBank-EU
Num Peaks: 7
71.0133	10
79.9571	50
80.9649	10
85.0293	10
87.0085	20
96.9602	1000
241.0032	160

NAME: PRZ_M632b
PRECURSORMZ: 632.02808644783
PRECURSORTYPE: [M-H]-
FORMULA: C21H26Cl3N3O11S
Ontology: NA
INCHIKEY: UNCSXZRCRHPBJA-UHFFFAOYNA-N
SMILES: CCCN(CCOC=1C(=CC(=C(C1Cl)OC2C(C(C(C(COS(O)(=O)=O)O2)O)O)O)Cl)Cl)C(N3C=CN=C3)=O
RETENTIONTIME: 
CCS: -1
IONMODE: Negative
INSTRUMENTTYPE: LC-ESI-QFT
INSTRUMENT: Q Exactive Orbitrap Thermo Scientific
COLLISIONENERGY: 80 (nominal)
Comment: DB#=ET201654; origin=MassBank-EU
Num Peaks: 6
71.0134	20
79.9571	90
80.965	20
85.0291	10
87.0085	10
96.9602	1000

NAME: PRZ_M632b
PRECURSORMZ: 632.02808644783
PRECURSORTYPE: [M-H]-
FORMULA: C21H26Cl3N3O11S
Ontology: NA
INCHIKEY: UNCSXZRCRHPBJA-UHFFFAOYNA-N
SMILES: CCCN(CCOC=1C(=CC(=C(C1Cl)OC2C(C(C(C(COS(O)(=O)=O)O2)O)O)O)Cl)Cl)C(N3C=CN=C3)=O
RETENTIONTIME: 
CCS: -1
IONMODE: Negative
INSTRUMENTTYPE: LC-ESI-QFT
INSTRUMENT: Q Exactive Orbitrap Thermo Scientific
COLLISIONENERGY: 90 (nominal)
Comment: DB#=ET201655; origin=MassBank-EU
Num Peaks: 3
79.9571	110
87.0086	30
96.9602	1000

NAME: EP_M424
PRECURSORMZ: 424.01757114783
PRECURSORTYPE: [M-H]-
FORMULA: C17H13ClFN3O5S
Ontology: NA
INCHIKEY: LRHLUQVZYPONJN-UHFFFAOYNA-N
SMILES: C1=CC=C(C(=C1)C2C(C3=CC=C(C=C3)F)(C(N4C=NC=N4)OS(O)(=O)=O)O2)Cl
RETENTIONTIME: 
CCS: -1
IONMODE: Negative
INSTRUMENTTYPE: LC-ESI-QFT
INSTRUMENT: Q Exactive Orbitrap Thermo Scientific
COLLISIONENERGY: 20 (nominal)
Comment: DB#=ET220551; origin=MassBank-EU
Num Peaks: 2
344.06119	1000
424.0184	940

NAME: EP_M424
PRECURSORMZ: 424.01757114783
PRECURSORTYPE: [M-H]-
FORMULA: C17H13ClFN3O5S
Ontology: NA
INCHIKEY: LRHLUQVZYPONJN-UHFFFAOYNA-N
SMILES: C1=CC=C(C(=C1)C2C(C3=CC=C(C=C3)F)(C(N4C=NC=N4)OS(O)(=O)=O)O2)Cl
RETENTIONTIME: 
CCS: -1
IONMODE: Negative
INSTRUMENTTYPE: LC-ESI-QFT
INSTRUMENT: Q Exactive Orbitrap Thermo Scientific
COLLISIONENERGY: 30 (nominal)
Comment: DB#=ET220552; origin=MassBank-EU
Num Peaks: 5
154.99091	10
239.0518	160
308.08469	40
344.06131	1000
424.0192	60

NAME: EP_M424
PRECURSORMZ: 424.01757114783
PRECURSORTYPE: [M-H]-
FORMULA: C17H13ClFN3O5S
Ontology: NA
INCHIKEY: LRHLUQVZYPONJN-UHFFFAOYNA-N
SMILES: C1=CC=C(C(=C1)C2C(C3=CC=C(C=C3)F)(C(N4C=NC=N4)OS(O)(=O)=O)O2)Cl
RETENTIONTIME: 
CCS: -1
IONMODE: Negative
INSTRUMENTTYPE: LC-ESI-QFT
INSTRUMENT: Q Exactive Orbitrap Thermo Scientific
COLLISIONENERGY: 40 (nominal)
Comment: DB#=ET220553; origin=MassBank-EU
Num Peaks: 7
68.0248	770
96.9601	30
154.991	120
226.04359	190
239.0519	1000
308.08539	50
344.06161	760

NAME: EP_M424
PRECURSORMZ: 424.01757114783
PRECURSORTYPE: [M-H]-
FORMULA: C17H13ClFN3O5S
Ontology: NA
INCHIKEY: LRHLUQVZYPONJN-UHFFFAOYNA-N
SMILES: C1=CC=C(C(=C1)C2C(C3=CC=C(C=C3)F)(C(N4C=NC=N4)OS(O)(=O)=O)O2)Cl
RETENTIONTIME: 
CCS: -1
IONMODE: Negative
INSTRUMENTTYPE: LC-ESI-QFT
INSTRUMENT: Q Exactive Orbitrap Thermo Scientific
COLLISIONENERGY: 60 (nominal)
Comment: DB#=ET220554; origin=MassBank-EU
Num Peaks: 4
68.0248	1000
96.96	50
154.99091	110
239.0518	340

NAME: SMZ-Pt
PRECURSORMZ: 427.09424574883
PRECURSORTYPE: [M-H]-
FORMULA: C17H16N8O4S
Ontology: NA
INCHIKEY: LVUVWJASQQPDSL-UHFFFAOYSA-N
SMILES: CC1=CC(=NO1)NS(C2=CC=C(C=C2)NCC=3C=NC4=C(C(=NC(=N)N4)O)N3)(=O)=O
RETENTIONTIME: 
CCS: -1
IONMODE: Negative
INSTRUMENTTYPE: LC-ESI-QFT
INSTRUMENT: Q-Exactive + Thermo Scientific
COLLISIONENERGY: 15 % (nominal)
Comment: DB#=ET310251; origin=MassBank-EU
Num Peaks: 2
427.0444	90
427.09451	1000

NAME: SMZ-Pt
PRECURSORMZ: 427.09424574883
PRECURSORTYPE: [M-H]-
FORMULA: C17H16N8O4S
Ontology: NA
INCHIKEY: LVUVWJASQQPDSL-UHFFFAOYSA-N
SMILES: CC1=CC(=NO1)NS(C2=CC=C(C=C2)NCC=3C=NC4=C(C(=NC(=N)N4)O)N3)(=O)=O
RETENTIONTIME: 
CCS: -1
IONMODE: Negative
INSTRUMENTTYPE: LC-ESI-QFT
INSTRUMENT: Q-Exactive + Thermo Scientific
COLLISIONENERGY: 30 % (nominal)
Comment: DB#=ET310252; origin=MassBank-EU
Num Peaks: 9
156.0117	70
159.9959	60
175.05009	280
252.045	350
266.0925	190
267.09961	340
313.04941	70
331.0614	1000
427.09409	980

NAME: SMZ-Pt
PRECURSORMZ: 427.09424574883
PRECURSORTYPE: [M-H]-
FORMULA: C17H16N8O4S
Ontology: NA
INCHIKEY: LVUVWJASQQPDSL-UHFFFAOYSA-N
SMILES: CC1=CC(=NO1)NS(C2=CC=C(C=C2)NCC=3C=NC4=C(C(=NC(=N)N4)O)N3)(=O)=O
RETENTIONTIME: 
CCS: -1
IONMODE: Negative
INSTRUMENTTYPE: LC-ESI-QFT
INSTRUMENT: Q-Exactive + Thermo Scientific
COLLISIONENERGY: 45 % (nominal)
Comment: DB#=ET310253; origin=MassBank-EU
Num Peaks: 11
92.0503	110
98.0243	50
131.0488	130
156.01221	440
159.9953	130
161.0719	90
175.0498	1000
266.09079	290
267.10001	420
331.06281	230
359.06631	60

NAME: SMZ-Pt
PRECURSORMZ: 427.09424574883
PRECURSORTYPE: [M-H]-
FORMULA: C17H16N8O4S
Ontology: NA
INCHIKEY: LVUVWJASQQPDSL-UHFFFAOYSA-N
SMILES: CC1=CC(=NO1)NS(C2=CC=C(C=C2)NCC=3C=NC4=C(C(=NC(=N)N4)O)N3)(=O)=O
RETENTIONTIME: 
CCS: -1
IONMODE: Negative
INSTRUMENTTYPE: LC-ESI-QFT
INSTRUMENT: Q-Exactive + Thermo Scientific
COLLISIONENERGY: 60 % (nominal)
Comment: DB#=ET310254; origin=MassBank-EU
Num Peaks: 6
92.0506	430
107.0377	180
131.0486	200
132.04401	870
156.01221	190
175.0495	1000

NAME: SMZ-Pt
PRECURSORMZ: 427.09424574883
PRECURSORTYPE: [M-H]-
FORMULA: C17H16N8O4S
Ontology: NA
INCHIKEY: LVUVWJASQQPDSL-UHFFFAOYSA-N
SMILES: CC1=CC(=NO1)NS(C2=CC=C(C=C2)NCC=3C=NC4=C(C(=NC(=N)N4)O)N3)(=O)=O
RETENTIONTIME: 
CCS: -1
IONMODE: Negative
INSTRUMENTTYPE: LC-ESI-QFT
INSTRUMENT: Q-Exactive + Thermo Scientific
COLLISIONENERGY: 75 % (nominal)
Comment: DB#=ET310255; origin=MassBank-EU
Num Peaks: 5
92.0507	520
107.0377	260
132.04401	1000
156.0128	70
175.05	530

NAME: SMZ-Pt
PRECURSORMZ: 427.09424574883
PRECURSORTYPE: [M-H]-
FORMULA: C17H16N8O4S
Ontology: NA
INCHIKEY: LVUVWJASQQPDSL-UHFFFAOYSA-N
SMILES: CC1=CC(=NO1)NS(C2=CC=C(C=C2)NCC=3C=NC4=C(C(=NC(=N)N4)O)N3)(=O)=O
RETENTIONTIME: 
CCS: -1
IONMODE: Negative
INSTRUMENTTYPE: LC-ESI-QFT
INSTRUMENT: Q-Exactive + Thermo Scientific
COLLISIONENERGY: 90 % (nominal)
Comment: DB#=ET310256; origin=MassBank-EU
Num Peaks: 5
63.9624	160
66.0096	480
92.0504	610
107.0378	150
132.04401	1000

NAME: SMZ-Pt
PRECURSORMZ: 427.09424574883
PRECURSORTYPE: [M-H]-
FORMULA: C17H16N8O4S
Ontology: NA
INCHIKEY: LVUVWJASQQPDSL-UHFFFAOYSA-N
SMILES: CC1=CC(=NO1)NS(C2=CC=C(C=C2)NCC=3C=NC4=C(C(=NC(=N)N4)O)N3)(=O)=O
RETENTIONTIME: 
CCS: -1
IONMODE: Negative
INSTRUMENTTYPE: LC-ESI-QFT
INSTRUMENT: Q-Exactive + Thermo Scientific
COLLISIONENERGY: 120 % (nominal)
Comment: DB#=ET310257; origin=MassBank-EU
Num Peaks: 4
63.9623	180
66.0097	1000
132.0444	210
301.07211	140

NAME: SMZ-Pt
PRECURSORMZ: 427.09424574883
PRECURSORTYPE: [M-H]-
FORMULA: C17H16N8O4S
Ontology: NA
INCHIKEY: LVUVWJASQQPDSL-UHFFFAOYSA-N
SMILES: CC1=CC(=NO1)NS(C2=CC=C(C=C2)NCC=3C=NC4=C(C(=NC(=N)N4)O)N3)(=O)=O
RETENTIONTIME: 
CCS: -1
IONMODE: Negative
INSTRUMENTTYPE: LC-ESI-QFT
INSTRUMENT: Q-Exactive + Thermo Scientific
COLLISIONENERGY: 150 % (nominal)
Comment: DB#=ET310258; origin=MassBank-EU
Num Peaks: 1
66.0098	1000

NAME: SMZ-Pt
PRECURSORMZ: 427.09424574883
PRECURSORTYPE: [M-H]-
FORMULA: C17H16N8O4S
Ontology: NA
INCHIKEY: LVUVWJASQQPDSL-UHFFFAOYSA-N
SMILES: CC1=CC(=NO1)NS(C2=CC=C(C=C2)NCC=3C=NC4=C(C(=NC(=N)N4)O)N3)(=O)=O
RETENTIONTIME: 
CCS: -1
IONMODE: Negative
INSTRUMENTTYPE: LC-ESI-QFT
INSTRUMENT: Q-Exactive + Thermo Scientific
COLLISIONENERGY: 180 % (nominal)
Comment: DB#=ET310259; origin=MassBank-EU
Num Peaks: 3
63.9626	180
66.0098	1000
243.0457	120

NAME: SMZ-PtO
PRECURSORMZ: 428.07826133283
PRECURSORTYPE: [M-H]-
FORMULA: C17H15N7O5S
Ontology: NA
INCHIKEY: ZTEDFROSGMEYCI-UHFFFAOYSA-N
SMILES: CC1=CC(=NO1)NS(C2=CC=C(C=C2)NCC=3C=NC4=C(C(=NC(=N4)O)O)N3)(=O)=O
RETENTIONTIME: 
CCS: -1
IONMODE: Negative
INSTRUMENTTYPE: LC-ESI-QFT
INSTRUMENT: Q-Exactive + Thermo Scientific
COLLISIONENERGY: 15 % (nominal)
Comment: DB#=ET310351; origin=MassBank-EU
Num Peaks: 2
332.0455	20
428.0784	1000

NAME: SMZ-PtO
PRECURSORMZ: 428.07826133283
PRECURSORTYPE: [M-H]-
FORMULA: C17H15N7O5S
Ontology: NA
INCHIKEY: ZTEDFROSGMEYCI-UHFFFAOYSA-N
SMILES: CC1=CC(=NO1)NS(C2=CC=C(C=C2)NCC=3C=NC4=C(C(=NC(=N4)O)O)N3)(=O)=O
RETENTIONTIME: 
CCS: -1
IONMODE: Negative
INSTRUMENTTYPE: LC-ESI-QFT
INSTRUMENT: Q-Exactive + Thermo Scientific
COLLISIONENERGY: 30 % (nominal)
Comment: DB#=ET310352; origin=MassBank-EU
Num Peaks: 23
92.0503	10
122.0249	10
155.00459	10
156.0125	30
159.9949	10
161.07201	10
175.0262	10
176.0338	200
188.0831	10
208.0244	10
224.09509	10
251.0365	10
252.0448	40
267.07599	60
268.08389	110
270.06299	10
282.08731	30
288.05591	90
289.03961	10
314.03519	10
315.04099	10
332.0459	1000
428.07861	290

NAME: SMZ-PtO
PRECURSORMZ: 428.07826133283
PRECURSORTYPE: [M-H]-
FORMULA: C17H15N7O5S
Ontology: NA
INCHIKEY: ZTEDFROSGMEYCI-UHFFFAOYSA-N
SMILES: CC1=CC(=NO1)NS(C2=CC=C(C=C2)NCC=3C=NC4=C(C(=NC(=N4)O)O)N3)(=O)=O
RETENTIONTIME: 
CCS: -1
IONMODE: Negative
INSTRUMENTTYPE: LC-ESI-QFT
INSTRUMENT: Q-Exactive + Thermo Scientific
COLLISIONENERGY: 45 % (nominal)
Comment: DB#=ET310353; origin=MassBank-EU
Num Peaks: 32
63.9624	10
79.9573	10
82.0299	20
92.0505	100
96.033	30
107.0377	40
117.0457	10
122.0249	40
131.04871	10
132.0439	10
146.0722	20
155.0047	90
156.0125	140
159.9948	40
161.07201	40
163.02609	10
175.02609	10
176.03391	1000
177.0417	10
187.07491	10
197.08321	10
208.0237	30
224.09399	10
225.0784	50
252.04401	20
267.0762	150
268.08401	260
270.06259	20
288.05609	90
289.0401	30
314.03519	10
332.04599	280

NAME: SMZ-PtO
PRECURSORMZ: 428.07826133283
PRECURSORTYPE: [M-H]-
FORMULA: C17H15N7O5S
Ontology: NA
INCHIKEY: ZTEDFROSGMEYCI-UHFFFAOYSA-N
SMILES: CC1=CC(=NO1)NS(C2=CC=C(C=C2)NCC=3C=NC4=C(C(=NC(=N4)O)O)N3)(=O)=O
RETENTIONTIME: 
CCS: -1
IONMODE: Negative
INSTRUMENTTYPE: LC-ESI-QFT
INSTRUMENT: Q-Exactive + Thermo Scientific
COLLISIONENERGY: 60 % (nominal)
Comment: DB#=ET310354; origin=MassBank-EU
Num Peaks: 29
63.9624	40
82.0298	30
91.0427	20
92.0506	120
96.0328	20
107.0377	100
117.0461	10
122.0249	10
131.0493	10
132.0441	10
133.028	30
145.0645	10
146.0726	10
155.00459	60
156.0125	50
159.995	10
161.07201	20
163.02609	10
170.07249	10
175.026	10
176.03391	1000
177.0421	10
187.07449	10
197.0835	10
208.0239	30
225.0784	20
266.06781	10
267.07629	50
268.08429	20

NAME: SMZ-PtO
PRECURSORMZ: 428.07826133283
PRECURSORTYPE: [M-H]-
FORMULA: C17H15N7O5S
Ontology: NA
INCHIKEY: ZTEDFROSGMEYCI-UHFFFAOYSA-N
SMILES: CC1=CC(=NO1)NS(C2=CC=C(C=C2)NCC=3C=NC4=C(C(=NC(=N4)O)O)N3)(=O)=O
RETENTIONTIME: 
CCS: -1
IONMODE: Negative
INSTRUMENTTYPE: LC-ESI-QFT
INSTRUMENT: Q-Exactive + Thermo Scientific
COLLISIONENERGY: 75 % (nominal)
Comment: DB#=ET310355; origin=MassBank-EU
Num Peaks: 27
63.9625	90
65.9984	10
77.0146	10
77.9656	20
82.0299	60
91.0428	70
92.0506	250
96.0328	20
105.0332	20
107.0377	190
117.0457	20
120.0202	20
131.0488	10
132.02029	10
132.04401	10
133.02831	100
134.036	10
145.06419	10
146.0721	10
155.00459	20
156.0126	20
163.0265	10
175.026	10
176.03391	1000
177.0412	10
195.0686	10
208.024	30

NAME: SMZ-PtO
PRECURSORMZ: 428.07826133283
PRECURSORTYPE: [M-H]-
FORMULA: C17H15N7O5S
Ontology: NA
INCHIKEY: ZTEDFROSGMEYCI-UHFFFAOYSA-N
SMILES: CC1=CC(=NO1)NS(C2=CC=C(C=C2)NCC=3C=NC4=C(C(=NC(=N4)O)O)N3)(=O)=O
RETENTIONTIME: 
CCS: -1
IONMODE: Negative
INSTRUMENTTYPE: LC-ESI-QFT
INSTRUMENT: Q-Exactive + Thermo Scientific
COLLISIONENERGY: 90 % (nominal)
Comment: DB#=ET310356; origin=MassBank-EU
Num Peaks: 24
52.0192	10
63.9625	270
65.0143	20
65.9984	20
77.9655	70
82.0297	150
91.0428	260
92.0506	530
94.0299	20
105.0332	10
107.0378	340
117.0212	10
117.0456	50
120.0205	20
131.04849	10
132.02	20
133.02831	240
134.035	10
148.03951	20
153.97121	10
155.00549	10
175.02541	10
176.03391	1000
208.0238	20

NAME: SMZ-PtO
PRECURSORMZ: 428.07826133283
PRECURSORTYPE: [M-H]-
FORMULA: C17H15N7O5S
Ontology: NA
INCHIKEY: ZTEDFROSGMEYCI-UHFFFAOYSA-N
SMILES: CC1=CC(=NO1)NS(C2=CC=C(C=C2)NCC=3C=NC4=C(C(=NC(=N4)O)O)N3)(=O)=O
RETENTIONTIME: 
CCS: -1
IONMODE: Negative
INSTRUMENTTYPE: LC-ESI-QFT
INSTRUMENT: Q-Exactive + Thermo Scientific
COLLISIONENERGY: 120 % (nominal)
Comment: DB#=ET310357; origin=MassBank-EU
Num Peaks: 14
63.9625	770
64.0192	40
65.0146	50
65.9986	80
66.01	30
77.9655	140
82.0299	80
91.0428	540
92.0505	1000
107.0378	190
133.02789	90
137.0746	30
169.0356	30
176.034	200

NAME: SMZ-PtO
PRECURSORMZ: 428.07826133283
PRECURSORTYPE: [M-H]-
FORMULA: C17H15N7O5S
Ontology: NA
INCHIKEY: ZTEDFROSGMEYCI-UHFFFAOYSA-N
SMILES: CC1=CC(=NO1)NS(C2=CC=C(C=C2)NCC=3C=NC4=C(C(=NC(=N4)O)O)N3)(=O)=O
RETENTIONTIME: 
CCS: -1
IONMODE: Negative
INSTRUMENTTYPE: LC-ESI-QFT
INSTRUMENT: Q-Exactive + Thermo Scientific
COLLISIONENERGY: 150 % (nominal)
Comment: DB#=ET310358; origin=MassBank-EU
Num Peaks: 11
50.0036	60
63.9624	1000
64.0193	70
65.9986	70
77.9656	140
90.0346	50
91.0428	120
92.0506	460
127.0516	60
216.9687	60
393.09299	60

NAME: SMZ-PtO
PRECURSORMZ: 428.07826133283
PRECURSORTYPE: [M-H]-
FORMULA: C17H15N7O5S
Ontology: NA
INCHIKEY: ZTEDFROSGMEYCI-UHFFFAOYSA-N
SMILES: CC1=CC(=NO1)NS(C2=CC=C(C=C2)NCC=3C=NC4=C(C(=NC(=N4)O)O)N3)(=O)=O
RETENTIONTIME: 
CCS: -1
IONMODE: Negative
INSTRUMENTTYPE: LC-ESI-QFT
INSTRUMENT: Q-Exactive + Thermo Scientific
COLLISIONENERGY: 180 % (nominal)
Comment: DB#=ET310359; origin=MassBank-EU
Num Peaks: 9
50.0036	100
61.9708	100
63.9625	1000
65.9986	80
77.9657	120
90.0348	80
92.0509	110
158.0379	70
276.07071	80

NAME: MEF-Glu
PRECURSORMZ: 369.14559536383
PRECURSORTYPE: [M-H]-
FORMULA: C20H22N2O5
Ontology: NA
INCHIKEY: HLEKOHRJHVCEKY-UHFFFAOYNA-N
SMILES: CC=1C=CC=C(C1C)NC2=CC=CC=C2C(=NC(CCC(=O)O)C(=O)O)O
RETENTIONTIME: 
CCS: -1
IONMODE: Negative
INSTRUMENTTYPE: LC-ESI-QFT
INSTRUMENT: Q-Exactive + Thermo Scientific
COLLISIONENERGY: 15 % (nominal)
Comment: DB#=ET320151; origin=MassBank-EU
Num Peaks: 6
128.0358	10
240.1031	30
307.14349	10
325.15591	30
351.13501	20
369.14539	1000

NAME: MEF-Glu
PRECURSORMZ: 369.14559536383
PRECURSORTYPE: [M-H]-
FORMULA: C20H22N2O5
Ontology: NA
INCHIKEY: HLEKOHRJHVCEKY-UHFFFAOYNA-N
SMILES: CC=1C=CC=C(C1C)NC2=CC=CC=C2C(=NC(CCC(=O)O)C(=O)O)O
RETENTIONTIME: 
CCS: -1
IONMODE: Negative
INSTRUMENTTYPE: LC-ESI-QFT
INSTRUMENT: Q-Exactive + Thermo Scientific
COLLISIONENERGY: 30 % (nominal)
Comment: DB#=ET320152; origin=MassBank-EU
Num Peaks: 15
59.0141	30
83.0505	30
84.0457	90
128.03529	480
196.1127	390
221.10809	50
222.0925	250
239.1189	610
240.1028	800
263.15579	150
265.13419	30
281.16559	740
299.00931	90
307.14551	320
325.15591	1000

NAME: MEF-Glu
PRECURSORMZ: 369.14559536383
PRECURSORTYPE: [M-H]-
FORMULA: C20H22N2O5
Ontology: NA
INCHIKEY: HLEKOHRJHVCEKY-UHFFFAOYNA-N
SMILES: CC=1C=CC=C(C1C)NC2=CC=CC=C2C(=NC(CCC(=O)O)C(=O)O)O
RETENTIONTIME: 
CCS: -1
IONMODE: Negative
INSTRUMENTTYPE: LC-ESI-QFT
INSTRUMENT: Q-Exactive + Thermo Scientific
COLLISIONENERGY: 45 % (nominal)
Comment: DB#=ET320153; origin=MassBank-EU
Num Peaks: 18
59.0138	50
83.0505	10
84.0454	90
85.0299	10
89.1661	10
128.03529	150
180.0824	10
194.09731	40
196.1131	1000
221.10851	270
222.0923	50
223.13341	20
239.1189	210
240.1031	70
263.15591	60
265.13419	30
281.16559	140
299.01089	20

NAME: MEF-Glu
PRECURSORMZ: 369.14559536383
PRECURSORTYPE: [M-H]-
FORMULA: C20H22N2O5
Ontology: NA
INCHIKEY: HLEKOHRJHVCEKY-UHFFFAOYNA-N
SMILES: CC=1C=CC=C(C1C)NC2=CC=CC=C2C(=NC(CCC(=O)O)C(=O)O)O
RETENTIONTIME: 
CCS: -1
IONMODE: Negative
INSTRUMENTTYPE: LC-ESI-QFT
INSTRUMENT: Q-Exactive + Thermo Scientific
COLLISIONENERGY: 60 % (nominal)
Comment: DB#=ET320154; origin=MassBank-EU
Num Peaks: 16
59.0139	30
84.0456	120
92.0508	20
102.0562	20
128.03529	110
166.06371	20
179.08749	30
180.08211	100
192.08189	110
194.0975	120
196.1131	1000
221.0887	30
221.1084	290
222.09309	20
239.119	20
299.0098	20

NAME: MEF-Glu
PRECURSORMZ: 369.14559536383
PRECURSORTYPE: [M-H]-
FORMULA: C20H22N2O5
Ontology: NA
INCHIKEY: HLEKOHRJHVCEKY-UHFFFAOYNA-N
SMILES: CC=1C=CC=C(C1C)NC2=CC=CC=C2C(=NC(CCC(=O)O)C(=O)O)O
RETENTIONTIME: 
CCS: -1
IONMODE: Negative
INSTRUMENTTYPE: LC-ESI-QFT
INSTRUMENT: Q-Exactive + Thermo Scientific
COLLISIONENERGY: 75 % (nominal)
Comment: DB#=ET320155; origin=MassBank-EU
Num Peaks: 11
59.0138	150
84.0454	290
91.9751	80
92.0507	360
128.03551	130
179.08701	90
180.08231	430
192.0818	400
194.0972	470
196.1129	1000
221.10921	170

NAME: MEF-Glu
PRECURSORMZ: 369.14559536383
PRECURSORTYPE: [M-H]-
FORMULA: C20H22N2O5
Ontology: NA
INCHIKEY: HLEKOHRJHVCEKY-UHFFFAOYNA-N
SMILES: CC=1C=CC=C(C1C)NC2=CC=CC=C2C(=NC(CCC(=O)O)C(=O)O)O
RETENTIONTIME: 
CCS: -1
IONMODE: Negative
INSTRUMENTTYPE: LC-ESI-QFT
INSTRUMENT: Q-Exactive + Thermo Scientific
COLLISIONENERGY: 90 % (nominal)
Comment: DB#=ET320156; origin=MassBank-EU
Num Peaks: 7
57.0345	270
84.0456	290
92.0505	500
93.0345	250
180.08189	1000
192.082	480
194.0979	500

NAME: MEF-Glu
PRECURSORMZ: 369.14559536383
PRECURSORTYPE: [M-H]-
FORMULA: C20H22N2O5
Ontology: NA
INCHIKEY: HLEKOHRJHVCEKY-UHFFFAOYNA-N
SMILES: CC=1C=CC=C(C1C)NC2=CC=CC=C2C(=NC(CCC(=O)O)C(=O)O)O
RETENTIONTIME: 
CCS: -1
IONMODE: Negative
INSTRUMENTTYPE: LC-ESI-QFT
INSTRUMENT: Q-Exactive + Thermo Scientific
COLLISIONENERGY: 120 % (nominal)
Comment: DB#=ET320157; origin=MassBank-EU
Num Peaks: 1
93.0349	1000

NAME: MEF-Glu
PRECURSORMZ: 369.14559536383
PRECURSORTYPE: [M-H]-
FORMULA: C20H22N2O5
Ontology: NA
INCHIKEY: HLEKOHRJHVCEKY-UHFFFAOYNA-N
SMILES: CC=1C=CC=C(C1C)NC2=CC=CC=C2C(=NC(CCC(=O)O)C(=O)O)O
RETENTIONTIME: 
CCS: -1
IONMODE: Negative
INSTRUMENTTYPE: LC-ESI-QFT
INSTRUMENT: Q-Exactive + Thermo Scientific
COLLISIONENERGY: 150 % (nominal)
Comment: DB#=ET320158; origin=MassBank-EU
Num Peaks: 1
324.08871	1000

NAME: C10-LAS (TENTATIVE)
PRECURSORMZ: 297.15298941883
PRECURSORTYPE: [M-H]-
FORMULA: C16H26O3S
Ontology: NA
INCHIKEY: NANHIUZYPFDGJS-UHFFFAOYNA-N
SMILES: CCCCCCC(CCC)C1=CC=C(C=C1)S(O)(=O)=O
RETENTIONTIME: 
CCS: -1
IONMODE: Negative
INSTRUMENTTYPE: LC-ESI-ITFT
INSTRUMENT: LTQ Orbitrap XL Thermo Scientific
COLLISIONENERGY: 60 NCE
Comment: DB#=ETS00001; origin=MassBank-EU
Num Peaks: 4
183.0119	100
226.0667	10
297.1521	1000
298.15521	170

NAME: SPA-9C (TENTATIVE)
PRECURSORMZ: 313.11151852983
PRECURSORTYPE: [M-H]-
FORMULA: C15H22O5S
Ontology: NA
INCHIKEY: OKAXESGQNYIPGL-UHFFFAOYNA-N
SMILES: CCCC(CCCCC(=O)O)C1=CC=C(C=C1)S(O)(=O)=O
RETENTIONTIME: 
CCS: -1
IONMODE: Negative
INSTRUMENTTYPE: LC-ESI-ITFT
INSTRUMENT: LTQ Orbitrap XL Thermo Scientific
COLLISIONENERGY: 60 NCE
Comment: DB#=ETS00002; origin=MassBank-EU
Num Peaks: 7
79.9573	10
183.0119	40
184.02049	10
197.0273	60
198.0365	10
313.1105	1000
314.11371	130

NAME: SPA-5DC (TENTATIVE)
PRECURSORMZ: 315.05439757683
PRECURSORTYPE: [M-H]-
FORMULA: C13H16O7S
Ontology: NA
INCHIKEY: HOTNRZRMYIRTPN-UHFFFAOYSA-N
SMILES: C=1C=C(C=CC1C(CCC(=O)O)CCC(=O)O)S(O)(=O)=O
RETENTIONTIME: 
CCS: -1
IONMODE: Negative
INSTRUMENTTYPE: LC-ESI-ITFT
INSTRUMENT: LTQ Orbitrap XL Thermo Scientific
COLLISIONENERGY: 60 NCE
Comment: DB#=ETS00003; origin=MassBank-EU
Num Peaks: 11
79.9576	20
170.004	20
183.0119	70
184.0199	20
211.0442	10
243.0327	160
253.0533	20
255.03281	30
271.064	60
297.04309	50
315.05331	1000

NAME: C10-DATS (TENTATIVE)
PRECURSORMZ: 295.13733935483
PRECURSORTYPE: [M-H]-
FORMULA: C16H24O3S
Ontology: NA
INCHIKEY: ZANYAOJPVAPRQY-UHFFFAOYNA-N
SMILES: CCCCC1CCC(CC)C=2C=CC(=CC12)S(O)(=O)=O
RETENTIONTIME: 
CCS: -1
IONMODE: Negative
INSTRUMENTTYPE: LC-ESI-ITFT
INSTRUMENT: LTQ Orbitrap XL Thermo Scientific
COLLISIONENERGY: 60 NCE
Comment: DB#=ETS00004; origin=MassBank-EU
Num Peaks: 2
210.0356	10
295.13629	1000

NAME: STA-4C (TENTATIVE)
PRECURSORMZ: 311.09586846583
PRECURSORTYPE: [M-H]-
FORMULA: C15H20O5S
Ontology: NA
INCHIKEY: OXVZPANHCLMUFY-UHFFFAOYNA-N
SMILES: CCC1CCC(CCC(=O)O)C=2C=CC(=CC12)S(O)(=O)=O
RETENTIONTIME: 
CCS: -1
IONMODE: Negative
INSTRUMENTTYPE: LC-ESI-ITFT
INSTRUMENT: LTQ Orbitrap XL Thermo Scientific
COLLISIONENERGY: 60 NCE
Comment: DB#=ETS00005; origin=MassBank-EU
Num Peaks: 9
79.9576	80
83.8546	10
184.01981	30
249.1479	10
267.1062	40
267.15948	10
293.08331	10
311.09479	1000
312.10471	10

NAME: STA-0DC (TENTATIVE)
PRECURSORMZ: 311.09586846583
PRECURSORTYPE: [M-H]-
FORMULA: C15H20O5S
Ontology: NA
INCHIKEY: OXVZPANHCLMUFY-UHFFFAOYNA-N
SMILES: CCC1CCC(CCC(=O)O)C=2C=CC(=CC12)S(O)(=O)=O
RETENTIONTIME: 
CCS: -1
IONMODE: Negative
INSTRUMENTTYPE: LC-ESI-ITFT
INSTRUMENT: LTQ Orbitrap XL Thermo Scientific
COLLISIONENERGY: 60 NCE
Comment: DB#=ETS00006; origin=MassBank-EU
Num Peaks: 9
79.9576	80
83.8546	10
184.01981	30
249.1479	10
267.1062	40
267.15948	10
293.08331	10
311.09479	1000
312.10471	10

NAME: C12-AS (TENTATIVE)
PRECURSORMZ: 265.14790403883
PRECURSORTYPE: [M-H]-
FORMULA: C12H26O4S
Ontology: Sulfuric acid monoesters
INCHIKEY: MOTZDAYCYVMXPC-UHFFFAOYSA-N
SMILES: CCCCCCCCCCCCOS(O)(=O)=O
RETENTIONTIME: 
CCS: 182.4316683
IONMODE: Negative
INSTRUMENTTYPE: LC-ESI-ITFT
INSTRUMENT: LTQ Orbitrap XL Thermo Scientific
COLLISIONENERGY: 60 NCE
Comment: DB#=ETS00007; origin=MassBank-EU
Num Peaks: 2
96.9602	300
265.147	1000

NAME: C12-AE1S (TENTATIVE)
PRECURSORMZ: 309.17411878783
PRECURSORTYPE: [M-H]-
FORMULA: C14H30O5S
Ontology: Sulfuric acid monoesters
INCHIKEY: QTDIEDOANJISNP-UHFFFAOYSA-N
SMILES: CCCCCCCCCCCCOCCOS(O)(=O)=O
RETENTIONTIME: 
CCS: 195.6286322
IONMODE: Negative
INSTRUMENTTYPE: LC-ESI-ITFT
INSTRUMENT: LTQ Orbitrap XL Thermo Scientific
COLLISIONENERGY: 60 NCE
Comment: DB#=ETS00008; origin=MassBank-EU
Num Peaks: 4
96.9603	140
122.976	10
242.953	10
309.173	1000

NAME: C14-SAS (TENTATIVE)
PRECURSORMZ: 277.18428954783
PRECURSORTYPE: [M-H]-
FORMULA: C14H30O3S
Ontology: NA
INCHIKEY: MZBFYGYTZIZFQC-UHFFFAOYNA-N
SMILES: CCCCCCCC(CCCCCC)S(O)(=O)=O
RETENTIONTIME: 
CCS: -1
IONMODE: Negative
INSTRUMENTTYPE: LC-ESI-ITFT
INSTRUMENT: LTQ Orbitrap XL Thermo Scientific
COLLISIONENERGY: 60 NCE
Comment: DB#=ETS00009; origin=MassBank-EU
Num Peaks: 3
79.9576	240
80.9655	20
277.18359	1000

NAME: NP1EC (TENTATIVE)
PRECURSORMZ: 277.18091824483
PRECURSORTYPE: [M-H]-
FORMULA: C17H26O3
Ontology: Phenoxyacetic acid derivatives
INCHIKEY: NISAHDHKGPWBEM-UHFFFAOYSA-N
SMILES: CCCCCCCCCC1=CC=C(C=C1)OCC(=O)O
RETENTIONTIME: 
CCS: 193.3113838
IONMODE: Negative
INSTRUMENTTYPE: LC-ESI-ITFT
INSTRUMENT: LTQ Orbitrap XL Thermo Scientific
COLLISIONENERGY: 60 NCE
Comment: DB#=ETS00010; origin=MassBank-EU
Num Peaks: 6
147.0815	10
161.0972	10
219.1747	1000
233.19031	10
277.14859	10
277.17981	30

NAME: C10-LAS (STANDARD MIX)
PRECURSORMZ: 297.15298941883
PRECURSORTYPE: [M-H]-
FORMULA: C16H26O3S
Ontology: NA
INCHIKEY: NANHIUZYPFDGJS-UHFFFAOYNA-N
SMILES: CCCCCCC(CCC)C1=CC=C(C=C1)S(O)(=O)=O
RETENTIONTIME: 
CCS: -1
IONMODE: Negative
INSTRUMENTTYPE: LC-ESI-QFT
INSTRUMENT: Q Exactive Orbitrap Thermo Scientific
COLLISIONENERGY: 90 NCE
Comment: DB#=ETS00012; origin=MassBank-EU
Num Peaks: 5
79.9565	360
119.0504	830
170.0038	40
183.0114	1000
197.02699	20

NAME: C10-LAS (SAMPLE)
PRECURSORMZ: 297.15298941883
PRECURSORTYPE: [M-H]-
FORMULA: C16H26O3S
Ontology: NA
INCHIKEY: NANHIUZYPFDGJS-UHFFFAOYNA-N
SMILES: CCCCCCC(CCC)C1=CC=C(C=C1)S(O)(=O)=O
RETENTIONTIME: 
CCS: -1
IONMODE: Negative
INSTRUMENTTYPE: LC-ESI-QFT
INSTRUMENT: Q Exactive Orbitrap Thermo Scientific
COLLISIONENERGY: 90 NCE
Comment: DB#=ETS00013; origin=MassBank-EU
Num Peaks: 12
79.9571	390
80.9647	10
93.0346	10
119.0503	860
133.0665	10
155.9879	10
170.0036	40
183.01109	1000
195.0119	20
196.021	10
197.0266	20
225.0584	10

NAME: C11-LAS (STANDARD MIX)
PRECURSORMZ: 311.16863948383
PRECURSORTYPE: [M-H]-
FORMULA: C17H28O3S
Ontology: NA
INCHIKEY: FERBTPHUEYEGDN-UHFFFAOYNA-N
SMILES: CCCCCCC(CCCC)C1=CC=C(C=C1)S(O)(=O)=O
RETENTIONTIME: 
CCS: -1
IONMODE: Negative
INSTRUMENTTYPE: LC-ESI-QFT
INSTRUMENT: Q Exactive Orbitrap Thermo Scientific
COLLISIONENERGY: 90 NCE
Comment: DB#=ETS00014; origin=MassBank-EU
Num Peaks: 11
79.9566	380
93.0346	10
119.0505	860
133.06551	10
155.9875	10
170.004	40
183.01151	1000
195.01241	20
196.0211	10
197.02721	20
225.0591	10

NAME: C11-LAS (SAMPLE)
PRECURSORMZ: 311.16863948383
PRECURSORTYPE: [M-H]-
FORMULA: C17H28O3S
Ontology: NA
INCHIKEY: FERBTPHUEYEGDN-UHFFFAOYNA-N
SMILES: CCCCCCC(CCCC)C1=CC=C(C=C1)S(O)(=O)=O
RETENTIONTIME: 
CCS: -1
IONMODE: Negative
INSTRUMENTTYPE: LC-ESI-QFT
INSTRUMENT: Q Exactive Orbitrap Thermo Scientific
COLLISIONENERGY: 90 NCE
Comment: DB#=ETS00015; origin=MassBank-EU
Num Peaks: 11
79.9566	410
80.9649	10
93.0347	10
119.0505	880
133.06551	10
155.9886	10
170.004	60
183.0116	1000
195.0123	20
196.01849	10
197.0273	20

NAME: 8phiC8SPC (STANDARD)
PRECURSORMZ: 299.09586846583
PRECURSORTYPE: [M-H]-
FORMULA: C14H20O5S
Ontology: NA
INCHIKEY: KCKCVKAROJRVBA-UHFFFAOYSA-N
SMILES: C(CCCC1=CC=C(C=C1)S(O)(=O)=O)CCCC(=O)O
RETENTIONTIME: 
CCS: -1
IONMODE: Negative
INSTRUMENTTYPE: LC-ESI-QFT
INSTRUMENT: Q Exactive Orbitrap Thermo Scientific
COLLISIONENERGY: 50 NCE
Comment: DB#=ETS00016; origin=MassBank-EU
Num Peaks: 13
55.2646	10
79.9568	110
80.9646	10
170.00439	890
183.01199	60
184.02	10
197.0282	10
201.99409	30
217.1234	10
235.134	10
255.10651	10
281.0853	110
299.09579	1000

NAME: 8phiC8SPC (STANDARD)
PRECURSORMZ: 299.09586846583
PRECURSORTYPE: [M-H]-
FORMULA: C14H20O5S
Ontology: NA
INCHIKEY: KCKCVKAROJRVBA-UHFFFAOYSA-N
SMILES: C(CCCC1=CC=C(C=C1)S(O)(=O)=O)CCCC(=O)O
RETENTIONTIME: 
CCS: -1
IONMODE: Negative
INSTRUMENTTYPE: LC-ESI-QFT
INSTRUMENT: Q Exactive Orbitrap Thermo Scientific
COLLISIONENERGY: 80 NCE
Comment: DB#=ETS00017; origin=MassBank-EU
Num Peaks: 12
63.9617	40
79.9568	320
80.9646	20
106.0423	10
119.0504	30
155.98891	20
170.00439	1000
183.01199	190
197.0278	10
201.99409	40
211.04379	10
299.09549	10

NAME: SPA-8C (SAMPLE)
PRECURSORMZ: 299.09586846583
PRECURSORTYPE: [M-H]-
FORMULA: C14H20O5S
Ontology: NA
INCHIKEY: KNDYNZDDQSJMQR-UHFFFAOYNA-N
SMILES: CCC(CCCCC(=O)O)C1=CC=C(C=C1)S(O)(=O)=O
RETENTIONTIME: 
CCS: -1
IONMODE: Negative
INSTRUMENTTYPE: LC-ESI-QFT
INSTRUMENT: Q Exactive Orbitrap Thermo Scientific
COLLISIONENERGY: 65 NCE
Comment: DB#=ETS00018; origin=MassBank-EU
Num Peaks: 18
73.0287	10
79.9567	220
80.9646	60
93.0343	10
119.0503	50
133.0659	10
155.98869	10
156.99631	10
170.00439	10
183.0119	1000
184.01961	10
196.0199	10
197.0276	140
211.0434	20
225.0591	20
239.0748	10
281.08511	10
299.09589	30

NAME: 10phiC10SPC (STANDARD)
PRECURSORMZ: 327.12716859483
PRECURSORTYPE: [M-H]-
FORMULA: C16H24O5S
Ontology: NA
INCHIKEY: VCKAUONIDRWIGP-UHFFFAOYSA-N
SMILES: C(CCCCC1=CC=C(C=C1)S(O)(=O)=O)CCCCC(=O)O
RETENTIONTIME: 
CCS: -1
IONMODE: Negative
INSTRUMENTTYPE: LC-ESI-QFT
INSTRUMENT: Q Exactive Orbitrap Thermo Scientific
COLLISIONENERGY: 50 NCE
Comment: DB#=ETS00019; origin=MassBank-EU
Num Peaks: 11
79.9568	130
80.9646	10
170.00439	1000
183.0121	90
184.0199	10
197.02769	10
201.9942	40
245.1548	10
263.16531	10
283.13739	10
309.11679	170

NAME: 10phiC10SPC (STANDARD)
PRECURSORMZ: 327.12716859483
PRECURSORTYPE: [M-H]-
FORMULA: C16H24O5S
Ontology: NA
INCHIKEY: VCKAUONIDRWIGP-UHFFFAOYSA-N
SMILES: C(CCCCC1=CC=C(C=C1)S(O)(=O)=O)CCCCC(=O)O
RETENTIONTIME: 
CCS: -1
IONMODE: Negative
INSTRUMENTTYPE: LC-ESI-QFT
INSTRUMENT: Q Exactive Orbitrap Thermo Scientific
COLLISIONENERGY: 80 NCE
Comment: DB#=ETS00020; origin=MassBank-EU
Num Peaks: 13
63.9617	50
79.9568	290
80.9647	20
106.0424	10
119.0504	40
155.98891	20
170.00439	1000
183.0121	260
184.0199	10
197.0278	30
201.9942	40
211.04359	10
225.0591	10

NAME: SPA-10C (SAMPLE)
PRECURSORMZ: 327.12716859483
PRECURSORTYPE: [M-H]-
FORMULA: C16H24O5S
Ontology: NA
INCHIKEY: PLMAIIGPUFQJCH-UHFFFAOYNA-N
SMILES: CCCCC(CCCCC(=O)O)C1=CC=C(C=C1)S(O)(=O)=O
RETENTIONTIME: 
CCS: -1
IONMODE: Negative
INSTRUMENTTYPE: LC-ESI-QFT
INSTRUMENT: Q Exactive Orbitrap Thermo Scientific
COLLISIONENERGY: 65 NCE
Comment: DB#=ETS00021; origin=MassBank-EU
Num Peaks: 19
79.9567	170
80.9646	60
93.0343	10
119.0503	60
149.04601	30
170.0043	80
183.01199	1000
184.0195	20
185.00681	30
196.02	10
197.02769	120
198.0354	10
201.99429	10
211.04311	20
216.0101	10
225.0589	20
239.0746	10
253.0907	10
309.11719	10

NAME: Flucofuron
PRECURSORMZ: 414.98451084783
PRECURSORTYPE: [M-H]-
FORMULA: C15H8Cl2F6N2O
Ontology: N-phenylureas
INCHIKEY: ABOVRDBEJDIBMZ-UHFFFAOYSA-N
SMILES: C1=CC(=C(C=C1N=C(NC=2C=CC(=C(C2)C(F)(F)F)Cl)O)C(F)(F)F)Cl
RETENTIONTIME: 
CCS: -1
IONMODE: Negative
INSTRUMENTTYPE: LC-ESI-ITFT
INSTRUMENT: LTQ Orbitrap XL Thermo Scientific
COLLISIONENERGY: scaled by m/z
Comment: DB#=ETS00123; origin=MassBank-EU
Num Peaks: 2
193.99879	1000
414.98431	690

NAME: Hexachlorophene
PRECURSORMZ: 402.84261914783
PRECURSORTYPE: [M-H]-
FORMULA: C13H6Cl6O2
Ontology: Diphenylmethanes
INCHIKEY: ACGUYXCXAPNIKK-UHFFFAOYSA-N
SMILES: C(C1=C(C(=CC(=C1O)Cl)Cl)Cl)C2=C(C(=CC(=C2O)Cl)Cl)Cl
RETENTIONTIME: 
CCS: 131.0430786
IONMODE: Negative
INSTRUMENTTYPE: LC-ESI-ITFT
INSTRUMENT: LTQ Orbitrap XL Thermo Scientific
COLLISIONENERGY: scaled by m/z
Comment: DB#=ETS00124; origin=MassBank-EU
Num Peaks: 4
158.94099	50
194.9175	1000
302.89401	70
366.8653	390

NAME: Lufenuron
PRECURSORMZ: 508.97114634783
PRECURSORTYPE: [M-H]-
FORMULA: C17H8Cl2F8N2O3
Ontology: N-phenylureas
INCHIKEY: PWPJGUXAGUPAHP-UHFFFAOYNA-N
SMILES: C1=CC(=C(C(=C1)F)C(=NC(NC=2C=C(C(=CC2Cl)OC(C(C(F)(F)F)F)(F)F)Cl)=O)O)F
RETENTIONTIME: 
CCS: 163.323889
IONMODE: Negative
INSTRUMENTTYPE: LC-ESI-ITFT
INSTRUMENT: LTQ Orbitrap XL Thermo Scientific
COLLISIONENERGY: 15
Comment: DB#=ETS00125; origin=MassBank-EU
Num Peaks: 7
170.8421	30
293.0694	30
325.9548	30
338.9733	120
468.9534	20
488.96359	90
508.9704	1000

NAME: Chlorophene
PRECURSORMZ: 217.04256624783
PRECURSORTYPE: [M-H]-
FORMULA: C13H11ClO
Ontology: Diphenylmethanes
INCHIKEY: NCKMMSIFQUPKCK-UHFFFAOYSA-N
SMILES: C1=CC=C(C=C1)CC2=CC(=CC=C2O)Cl
RETENTIONTIME: 
CCS: 146.8058072
IONMODE: Negative
INSTRUMENTTYPE: LC-ESI-ITFT
INSTRUMENT: LTQ Orbitrap XL Thermo Scientific
COLLISIONENERGY: 70
Comment: DB#=ETS00126; origin=MassBank-EU
Num Peaks: 2
113.1747	20
217.04311	1000

NAME: Benzotriazole
PRECURSORMZ: 118.04107072083
PRECURSORTYPE: [M-H]-
FORMULA: C6H5N3
Ontology: Benzotriazoles
INCHIKEY: QRUDEWIWKLJBPS-UHFFFAOYSA-N
SMILES: C1=CC=C2C(=C1)N=NN2
RETENTIONTIME: 
CCS: 116.8225331
IONMODE: Negative
INSTRUMENTTYPE: ESI-ITFT
INSTRUMENT: LTQ Orbitrap XL Thermo Scientific
COLLISIONENERGY: 35 % (nominal)
Comment: DB#=UA000202; origin=MassBank-EU
Num Peaks: 1
118.0412	1000

NAME: IQ
PRECURSORMZ: 197.08326988583
PRECURSORTYPE: [M-H]-
FORMULA: C11H10N4
Ontology: Quinolines and derivatives
INCHIKEY: ARZWATDYIYAUTA-UHFFFAOYSA-N
SMILES: CN1C=2C=CC3=C(C=CC=N3)C2NC1=N
RETENTIONTIME: 
CCS: 146.498703
IONMODE: Negative
INSTRUMENTTYPE: ESI-ITFT
INSTRUMENT: LTQ Orbitrap XL Thermo Scientific
COLLISIONENERGY: 35 % (nominal)
Comment: DB#=UA000502; origin=MassBank-EU
Num Peaks: 2
101.0272	290
197.0831	1000

NAME: IQ
PRECURSORMZ: 197.08326988583
PRECURSORTYPE: [M-H]-
FORMULA: C11H10N4
Ontology: Quinolines and derivatives
INCHIKEY: ARZWATDYIYAUTA-UHFFFAOYSA-N
SMILES: CN1C=2C=CC3=C(C=CC=N3)C2NC1=N
RETENTIONTIME: 
CCS: 146.498703
IONMODE: Negative
INSTRUMENTTYPE: APCI-ITFT
INSTRUMENT: LTQ Orbitrap XL Thermo Scientific
COLLISIONENERGY: 35 % (nominal)
Comment: DB#=UA000504; origin=MassBank-EU
Num Peaks: 1
182.0593	1000

NAME: MeIQX
PRECURSORMZ: 212.09416892183
PRECURSORTYPE: [M-H]-
FORMULA: C11H11N5
Ontology: Quinoxalines
INCHIKEY: DVCCCQNKIYNAKB-UHFFFAOYSA-N
SMILES: CC=1C=NC=2C=CC3=C(C2N1)NC(=N)N3C
RETENTIONTIME: 
CCS: 150.4686524
IONMODE: Negative
INSTRUMENTTYPE: APCI-ITFT
INSTRUMENT: LTQ Orbitrap XL Thermo Scientific
COLLISIONENERGY: 35 % (nominal)
Comment: DB#=UA000604; origin=MassBank-EU
Num Peaks: 1
197.07021	1000

NAME: HARMAN
PRECURSORMZ: 181.07712187783
PRECURSORTYPE: [M-H]-
FORMULA: C12H10N2
Ontology: Harmala alkaloids
INCHIKEY: PSFDQSOCUJVVGF-UHFFFAOYSA-N
SMILES: CC1=C2C(=CC=N1)C3=CC=CC=C3N2
RETENTIONTIME: 
CCS: 141.9225576
IONMODE: Negative
INSTRUMENTTYPE: ESI-ITFT
INSTRUMENT: LTQ Orbitrap XL Thermo Scientific
COLLISIONENERGY: 35 % (nominal)
Comment: DB#=UA000702; origin=MassBank-EU
Num Peaks: 1
181.0771	1000

NAME: A alpha C
PRECURSORMZ: 182.07237084983
PRECURSORTYPE: [M-H]-
FORMULA: C11H9N3
Ontology: Alpha carbolines
INCHIKEY: FJTNLJLPLJDTRM-UHFFFAOYSA-N
SMILES: C1=CC=C2C(=C1)C=3C=CC(=N)NC3N2
RETENTIONTIME: 
CCS: 141.4810023
IONMODE: Negative
INSTRUMENTTYPE: APCI-ITFT
INSTRUMENT: LTQ Orbitrap XL Thermo Scientific
COLLISIONENERGY: 35 % (nominal)
Comment: DB#=UA000804; origin=MassBank-EU
Num Peaks: 1
141.04581	1000

NAME: PHIP
PRECURSORMZ: 223.09891994983
PRECURSORTYPE: [M-H]-
FORMULA: C13H12N4
Ontology: Phenylpyridines
INCHIKEY: UQVKZNNCIHJZLS-UHFFFAOYSA-N
SMILES: CN1C=2C=C(C=NC2NC1=N)C3=CC=CC=C3
RETENTIONTIME: 
CCS: 155.4280682
IONMODE: Negative
INSTRUMENTTYPE: APCI-ITFT
INSTRUMENT: LTQ Orbitrap XL Thermo Scientific
COLLISIONENERGY: 35 % (nominal)
Comment: DB#=UA000904; origin=MassBank-EU
Num Peaks: 3
117.0333	10
128.0629	10
208.075	1000

NAME: 1-naphthalenecarboxaldehyde, 2-hydroxy
PRECURSORMZ: 171.04515304583
PRECURSORTYPE: [M-H]-
FORMULA: C11H8O2
Ontology: Naphthols and derivatives
INCHIKEY: NTCCNERMXRIPTR-UHFFFAOYSA-N
SMILES: C1=CC=C2C(=C1)C=CC(=C2C=O)O
RETENTIONTIME: 
CCS: 138.3232588
IONMODE: Negative
INSTRUMENTTYPE: APCI-ITFT
INSTRUMENT: LTQ Orbitrap XL Thermo Scientific
COLLISIONENERGY: 35 % (nominal)
Comment: DB#=UA001304; origin=MassBank-EU
Num Peaks: 1
143.0502	1000

NAME: 3-nitrobenzanthrone
PRECURSORMZ: 275.0587917339
PRECURSORTYPE: [M]-
FORMULA: C17H9NO3
Ontology: Phenanthrenes and derivatives
INCHIKEY: QAJOWHGESRCVLY-UHFFFAOYSA-N
SMILES: C1=CC=C2C(=C1)C=3C=CC(=C4C=CC=C(C34)C2=O)N(=O)=O
RETENTIONTIME: 
CCS: -1
IONMODE: Negative
INSTRUMENTTYPE: APCI-ITFT
INSTRUMENT: LTQ Orbitrap XL Thermo Scientific
COLLISIONENERGY: 35 % (nominal)
Comment: DB#=UA001605; origin=MassBank-EU
Num Peaks: 2
245.0605	1000
247.06351	10

NAME: 2-nitro-9-fluorenone
PRECURSORMZ: 225.0431416689
PRECURSORTYPE: [M]-
FORMULA: C13H7NO3
Ontology: NA
INCHIKEY: AJEAHBZZHSLIQP-UHFFFAOYSA-N
SMILES: C1=CC=C2C(=C1)C=3C=CC(=CC3C2=O)N(=O)=O
RETENTIONTIME: 
CCS: -1
IONMODE: Negative
INSTRUMENTTYPE: APCI-ITFT
INSTRUMENT: LTQ Orbitrap XL Thermo Scientific
COLLISIONENERGY: 35 % (nominal)
Comment: DB#=UA001705; origin=MassBank-EU
Num Peaks: 2
195.04491	1000
225.04289	250

NAME: 1,4-naphthalene-dione
PRECURSORMZ: 158.0373280129
PRECURSORTYPE: [M]-
FORMULA: C10H6O2
Ontology: Naphthoquinones
INCHIKEY: FRASJONUBLZVQX-UHFFFAOYSA-N
SMILES: C1=CC=C2C(=C1)C(C=CC2=O)=O
RETENTIONTIME: 
CCS: -1
IONMODE: Negative
INSTRUMENTTYPE: APCI-ITFT
INSTRUMENT: LTQ Orbitrap XL Thermo Scientific
COLLISIONENERGY: 35 % (nominal)
Comment: DB#=UA001805; origin=MassBank-EU
Num Peaks: 2
115.0192	30
158.0372	1000

NAME: 1H-Isoindole-1,3(2H)-dione
PRECURSORMZ: 146.02475195283
PRECURSORTYPE: [M-H]-
FORMULA: C8H5NO2
Ontology: Phthalimides
INCHIKEY: XKJCHHZQLQNZHY-UHFFFAOYSA-N
SMILES: C1=CC=C2C(=C1)C(=NC2=O)O
RETENTIONTIME: 
CCS: 129.0919077
IONMODE: Negative
INSTRUMENTTYPE: ESI-ITFT
INSTRUMENT: LTQ Orbitrap XL Thermo Scientific
COLLISIONENERGY: 35 % (nominal)
Comment: DB#=UA002002; origin=MassBank-EU
Num Peaks: 1
146.0248	1000

NAME: 1H-Isoindole-1,3(2H)-dione
PRECURSORMZ: 146.02475195283
PRECURSORTYPE: [M-H]-
FORMULA: C8H5NO2
Ontology: Phthalimides
INCHIKEY: XKJCHHZQLQNZHY-UHFFFAOYSA-N
SMILES: C1=CC=C2C(=C1)C(=NC2=O)O
RETENTIONTIME: 
CCS: 129.0919077
IONMODE: Negative
INSTRUMENTTYPE: APCI-ITFT
INSTRUMENT: LTQ Orbitrap XL Thermo Scientific
COLLISIONENERGY: 35 % (nominal)
Comment: DB#=UA002004; origin=MassBank-EU
Num Peaks: 1
146.0246	1000

NAME: 1,4-Chrysenequinone
PRECURSORMZ: 258.0686281419
PRECURSORTYPE: [M]-
FORMULA: C18H10O2
Ontology: NA
INCHIKEY: UORKIKBNUWJNJF-UHFFFAOYSA-N
SMILES: C1=CC=C2C(=C1)C=CC3=C2C=CC=4C(C=CC(C34)=O)=O
RETENTIONTIME: 
CCS: -1
IONMODE: Negative
INSTRUMENTTYPE: APCI-ITFT
INSTRUMENT: LTQ Orbitrap XL Thermo Scientific
COLLISIONENERGY: 35 % (nominal)
Comment: DB#=UA002105; origin=MassBank-EU
Num Peaks: 2
80.0504	510
258.06821	1000

NAME: 2-Hydroxyanthraquinone
PRECURSORMZ: 223.04006766583
PRECURSORTYPE: [M-H]-
FORMULA: C14H8O3
Ontology: Hydroxyanthraquinones
INCHIKEY: GCDBEYOJCZLKMC-UHFFFAOYSA-N
SMILES: C1=CC=C2C(=C1)C(C=3C=CC(=CC3C2=O)O)=O
RETENTIONTIME: 
CCS: 155.6107723
IONMODE: Negative
INSTRUMENTTYPE: ESI-ITFT
INSTRUMENT: LTQ Orbitrap XL Thermo Scientific
COLLISIONENERGY: 35 % (nominal)
Comment: DB#=UA002402; origin=MassBank-EU
Num Peaks: 3
154.0377	10
195.0452	1000
223.03979	940

NAME: 1-Hydroxyanthraquinone
PRECURSORMZ: 223.04006766583
PRECURSORTYPE: [M-H]-
FORMULA: C14H8O3
Ontology: Anthraquinones
INCHIKEY: BTLXPCBPYBNQNR-UHFFFAOYSA-N
SMILES: C1=CC=C2C(=C1)C(C=3C=CC=C(C3C2=O)O)=O
RETENTIONTIME: 
CCS: 149.761344
IONMODE: Negative
INSTRUMENTTYPE: ESI-ITFT
INSTRUMENT: LTQ Orbitrap XL Thermo Scientific
COLLISIONENERGY: 35 % (nominal)
Comment: DB#=UA002502; origin=MassBank-EU
Num Peaks: 3
152.02299	70
195.0451	1000
223.03931	80

NAME: 1-Hydroxyanthraquinone
PRECURSORMZ: 224.0478926979
PRECURSORTYPE: [M]-
FORMULA: C14H8O3
Ontology: Anthraquinones
INCHIKEY: BTLXPCBPYBNQNR-UHFFFAOYSA-N
SMILES: C1=CC=C2C(=C1)C(C=3C=CC=C(C3C2=O)O)=O
RETENTIONTIME: 
CCS: -1
IONMODE: Negative
INSTRUMENTTYPE: APCI-ITFT
INSTRUMENT: LTQ Orbitrap XL Thermo Scientific
COLLISIONENERGY: 35 % (nominal)
Comment: DB#=UA002505; origin=MassBank-EU
Num Peaks: 1
224.0475	1000

NAME: 1-nitropyrene
PRECURSORMZ: 247.0638771139
PRECURSORTYPE: [M]-
FORMULA: C16H9NO2
Ontology: Pyrenes
INCHIKEY: ALRLPDGCPYIVHP-UHFFFAOYSA-N
SMILES: C1=CC=2C=CC=3C=CC(=C4C=CC(=C1)C2C34)N(=O)=O
RETENTIONTIME: 
CCS: -1
IONMODE: Negative
INSTRUMENTTYPE: APCI-ITFT
INSTRUMENT: LTQ Orbitrap XL Thermo Scientific
COLLISIONENERGY: 35 % (nominal)
Comment: DB#=UA003405; origin=MassBank-EU
Num Peaks: 2
217.06551	1000
247.06351	20

NAME: 1,8-dinitropyrene
PRECURSORMZ: 292.0489553259
PRECURSORTYPE: [M]-
FORMULA: C16H8N2O4
Ontology: Pyrenes
INCHIKEY: BLYXNIHKOMELAP-UHFFFAOYSA-N
SMILES: C1=CC=2C=CC(=C3C=CC4=C(C=CC1=C4C23)N(=O)=O)N(=O)=O
RETENTIONTIME: 
CCS: -1
IONMODE: Negative
INSTRUMENTTYPE: APCI-ITFT
INSTRUMENT: LTQ Orbitrap XL Thermo Scientific
COLLISIONENERGY: 35 % (nominal)
Comment: DB#=UA003505; origin=MassBank-EU
Num Peaks: 2
262.0506	1000
292.0484	10

NAME: 4-methyl-2-nitrophenol
PRECURSORMZ: 153.0431416689
PRECURSORTYPE: [M]-
FORMULA: C7H7NO3
Ontology: Nitrophenols
INCHIKEY: SYDNSSSQVSOXTN-UHFFFAOYSA-N
SMILES: CC=1C=CC(=C(C1)N(=O)=O)O
RETENTIONTIME: 
CCS: -1
IONMODE: Negative
INSTRUMENTTYPE: APCI-ITFT
INSTRUMENT: LTQ Orbitrap XL Thermo Scientific
COLLISIONENERGY: 35 % (nominal)
Comment: DB#=UA003605; origin=MassBank-EU
Num Peaks: 4
75.0239	150
123.0451	1000
136.0403	960
138.0195	370

NAME: 4-Nitroquinoline 1-oxide
PRECURSORMZ: 190.0383906409
PRECURSORTYPE: [M]-
FORMULA: C9H6N2O3
Ontology: 4-nitroquinoline N-oxides
INCHIKEY: YHQDZJICGQWFHK-UHFFFAOYSA-N
SMILES: C1=CC=C2C(=C1)C(=CC=N2=O)N(=O)=O
RETENTIONTIME: 
CCS: -1
IONMODE: Negative
INSTRUMENTTYPE: APCI-ITFT
INSTRUMENT: LTQ Orbitrap XL Thermo Scientific
COLLISIONENERGY: 35 % (nominal)
Comment: DB#=UA003705; origin=MassBank-EU
Num Peaks: 7
116.0505	20
118.0297	10
132.04539	10
142.0298	10
144.04539	30
159.0325	10
160.04021	1000

NAME: 1,3-dinitrobenzene
PRECURSORMZ: 168.0176551969
PRECURSORTYPE: [M]-
FORMULA: C6H4N2O4
Ontology: Nitrobenzenes
INCHIKEY: WDCYWAQPCXBPJA-UHFFFAOYSA-N
SMILES: C1=CC(=CC(=C1)N(=O)=O)N(=O)=O
RETENTIONTIME: 
CCS: -1
IONMODE: Negative
INSTRUMENTTYPE: APCI-ITFT
INSTRUMENT: LTQ Orbitrap XL Thermo Scientific
COLLISIONENERGY: 35 % (nominal)
Comment: DB#=UA003905; origin=MassBank-EU
Num Peaks: 1
138.01961	1000

NAME: 2,4-dinitrotoluene
PRECURSORMZ: 182.0333052609
PRECURSORTYPE: [M]-
FORMULA: C7H6N2O4
Ontology: Dinitrotoluenes
INCHIKEY: RMBFBMJGBANMMK-UHFFFAOYSA-N
SMILES: CC=1C=CC(=CC1N(=O)=O)N(=O)=O
RETENTIONTIME: 
CCS: -1
IONMODE: Negative
INSTRUMENTTYPE: APCI-ITFT
INSTRUMENT: LTQ Orbitrap XL Thermo Scientific
COLLISIONENERGY: 35 % (nominal)
Comment: DB#=UA004005; origin=MassBank-EU
Num Peaks: 15
65.9985	20
106.0297	40
118.0297	10
122.0246	10
123.0324	10
124.0403	30
134.0247	120
135.0199	390
136.0278	100
137.0356	140
152.0352	610
153.0304	40
164.02271	110
165.0305	1000
166.0146	10

NAME: 1-chloro-2,4-dinitrobenzene
PRECURSORMZ: 201.9786828799
PRECURSORTYPE: [M]-
FORMULA: C6H3ClN2O4
Ontology: Nitrobenzenes
INCHIKEY: VYZAHLCBVHPDDF-UHFFFAOYSA-N
SMILES: C1=CC(=C(C=C1N(=O)=O)N(=O)=O)Cl
RETENTIONTIME: 
CCS: -1
IONMODE: Negative
INSTRUMENTTYPE: APCI-ITFT
INSTRUMENT: LTQ Orbitrap XL Thermo Scientific
COLLISIONENERGY: 35 % (nominal)
Comment: DB#=UA004105; origin=MassBank-EU
Num Peaks: 2
155.9856	20
171.9805	1000

NAME: Trinitrotoluene
PRECURSORMZ: 227.0183834729
PRECURSORTYPE: [M]-
FORMULA: C7H5N3O6
Ontology: Nitrobenzenes
INCHIKEY: SPSSULHKWOKEEL-UHFFFAOYSA-N
SMILES: CC1=C(C=C(C=C1N(=O)=O)N(=O)=O)N(=O)=O
RETENTIONTIME: 
CCS: -1
IONMODE: Negative
INSTRUMENTTYPE: APCI-ITFT
INSTRUMENT: LTQ Orbitrap XL Thermo Scientific
COLLISIONENERGY: 35 % (nominal)
Comment: DB#=UA004205; origin=MassBank-EU
Num Peaks: 27
88.0193	10
89.0145	10
93.0221	10
120.0091	10
123.02	30
124.0279	10
135.0201	10
136.02789	20
137.02451	160
151.015	70
152.0228	50
163.015	20
164.01019	20
166.0258	10
167.0099	40
167.02251	20
168.01781	20
169.0255	30
179.0099	20
180.0177	30
181.01289	20
181.02541	10
182.02071	10
197.0079	50
197.02029	250
198.01559	20
210.0155	1000

NAME: Nitrofen
PRECURSORMZ: 282.9808470799
PRECURSORTYPE: [M]-
FORMULA: C12H7Cl2NO3
Ontology: Diphenylethers
INCHIKEY: XITQUSLLOSKDTB-UHFFFAOYSA-N
SMILES: C1=CC(=C(C=C1Cl)Cl)OC2=CC=C(C=C2)N(=O)=O
RETENTIONTIME: 
CCS: -1
IONMODE: Negative
INSTRUMENTTYPE: APCI-ITFT
INSTRUMENT: LTQ Orbitrap XL Thermo Scientific
COLLISIONENERGY: 35 % (nominal)
Comment: DB#=UA004305; origin=MassBank-EU
Num Peaks: 9
138.01961	1000
160.9566	10
171.98061	170
235.9796	10
236.9879	10
247.0038	60
251.9747	50
252.9785	10
281.97269	20

NAME: 1-hydroxypyrene
PRECURSORMZ: 217.06588848983
PRECURSORTYPE: [M-H]-
FORMULA: C16H10O
Ontology: Pyrenes
INCHIKEY: BIJNHUAPTJVVNQ-UHFFFAOYSA-N
SMILES: C1=CC=2C=CC=3C=CC(=C4C=CC(=C1)C2C34)O
RETENTIONTIME: 
CCS: 152.5220988
IONMODE: Negative
INSTRUMENTTYPE: ESI-ITFT
INSTRUMENT: LTQ Orbitrap XL Thermo Scientific
COLLISIONENERGY: 35 % (nominal)
Comment: DB#=UA004402; origin=MassBank-EU
Num Peaks: 2
63.0325	910
189.071	1000

NAME: 3-hydroxybenzo(a)pyrene
PRECURSORMZ: 267.08153855383
PRECURSORTYPE: [M-H]-
FORMULA: C20H12O
Ontology: Benzopyrenes
INCHIKEY: SPUUWWRWIAEPDB-UHFFFAOYSA-N
SMILES: C1=CC=C2C(=C1)C=C3C=CC4=C(C=CC=5C=CC2=C3C54)O
RETENTIONTIME: 
CCS: 167.9173484
IONMODE: Negative
INSTRUMENTTYPE: ESI-ITFT
INSTRUMENT: LTQ Orbitrap XL Thermo Scientific
COLLISIONENERGY: 35 % (nominal)
Comment: DB#=UA004502; origin=MassBank-EU
Num Peaks: 1
267.08151	1000

NAME: 3-hydroxybenzo(a)pyrene
PRECURSORMZ: 267.08153855383
PRECURSORTYPE: [M-H]-
FORMULA: C20H12O
Ontology: Benzopyrenes
INCHIKEY: SPUUWWRWIAEPDB-UHFFFAOYSA-N
SMILES: C1=CC=C2C(=C1)C=C3C=CC4=C(C=CC=5C=CC2=C3C54)O
RETENTIONTIME: 
CCS: 167.9173484
IONMODE: Negative
INSTRUMENTTYPE: APCI-ITFT
INSTRUMENT: LTQ Orbitrap XL Thermo Scientific
COLLISIONENERGY: 35 % (nominal)
Comment: DB#=UA004504; origin=MassBank-EU
Num Peaks: 2
114.0473	200
267.08109	1000

NAME: 1-Naphthol
PRECURSORMZ: 143.05023842583
PRECURSORTYPE: [M-H]-
FORMULA: C10H8O
Ontology: Naphthols and derivatives
INCHIKEY: KJCVRFUGPWSIIH-UHFFFAOYSA-N
SMILES: C1=CC=C2C(=C1)C=CC=C2O
RETENTIONTIME: 
CCS: 126.2096313
IONMODE: Negative
INSTRUMENTTYPE: APCI-ITFT
INSTRUMENT: LTQ Orbitrap XL Thermo Scientific
COLLISIONENERGY: 35 % (nominal)
Comment: DB#=UA004604; origin=MassBank-EU
Num Peaks: 1
143.0502	1000

NAME: 2-naphthoic acid
PRECURSORMZ: 171.04515304583
PRECURSORTYPE: [M-H]-
FORMULA: C11H8O2
Ontology: Naphthalenecarboxylic acids
INCHIKEY: UOBYKYZJUGYBDK-UHFFFAOYSA-N
SMILES: C1=CC=C2C=C(C=CC2=C1)C(=O)O
RETENTIONTIME: 
CCS: 135.30858
IONMODE: Negative
INSTRUMENTTYPE: ESI-ITFT
INSTRUMENT: LTQ Orbitrap XL Thermo Scientific
COLLISIONENERGY: 35 % (nominal)
Comment: DB#=UA004802; origin=MassBank-EU
Num Peaks: 2
143.05029	1000
171.0448	10

NAME: 2-naphthoic acid
PRECURSORMZ: 171.04515304583
PRECURSORTYPE: [M-H]-
FORMULA: C11H8O2
Ontology: Naphthalenecarboxylic acids
INCHIKEY: UOBYKYZJUGYBDK-UHFFFAOYSA-N
SMILES: C1=CC=C2C=C(C=CC2=C1)C(=O)O
RETENTIONTIME: 
CCS: 135.30858
IONMODE: Negative
INSTRUMENTTYPE: APCI-ITFT
INSTRUMENT: LTQ Orbitrap XL Thermo Scientific
COLLISIONENERGY: 35 % (nominal)
Comment: DB#=UA004804; origin=MassBank-EU
Num Peaks: 1
127.0556	1000

